NAME : S007-02a
TYPE : CVRP
COMMENT : Hayes, 1967; Eilon, Watson-Gandy and Christofides, 1971
DIMENSION : 7
CAPACITY : 3
EDGE_WEIGHT_TYPE : EXPLICIT
EDGE_WEIGHT_FORMAT : LOWER_COL
DISPLAY_DATA_TYPE : NO_DISPLAY
VEHICLES : 2
DEPOT_SECTION
1
-1
DEMAND_SECTION
1 0
2 1
3 1
4 1
5 1
6 1
7 1
EDGE_WEIGHT_SECTION
10    20    25    25    20    10
12    20    25    30    20
10    11    22    30
2    11    25
10    20
12
EOF